
Gurobi 11.0.1 (win64) logging started Tue May 14 18:25:14 2024

Set parameter LogFile to value "output/solver_log15.txt"
Gurobi Optimizer version 11.0.1 build v11.0.1rc0 (win64 - Windows 11.0 (22631.2))

CPU model: 11th Gen Intel(R) Core(TM) i7-1165G7 @ 2.80GHz, instruction set [SSE2|AVX|AVX2|AVX512]
Thread count: 4 physical cores, 8 logical processors, using up to 8 threads

Optimize a model with 1112 rows, 255 columns and 21014 nonzeros
Model fingerprint: 0x985cecba
Variable types: 88 continuous, 167 integer (167 binary)
Coefficient statistics:
  Matrix range     [4e-01, 1e+05]
  Objective range  [1e+00, 1e+02]
  Bounds range     [1e+00, 1e+00]
  RHS range        [1e-02, 1e+05]

User MIP start produced solution with objective 38085.5 (0.00s)
User MIP start produced solution with objective 39273.7 (0.01s)
User MIP start produced solution with objective 39273.7 (0.01s)
Loaded user MIP start with objective 39273.7

Presolve removed 101 rows and 104 columns
Presolve time: 0.02s
Presolved: 1011 rows, 151 columns, 20116 nonzeros
Variable types: 82 continuous, 69 integer (68 binary)

Root relaxation: objective 4.110735e+04, 233 iterations, 0.01 seconds (0.03 work units)

    Nodes    |    Current Node    |     Objective Bounds      |     Work
 Expl Unexpl |  Obj  Depth IntInf | Incumbent    BestBd   Gap | It/Node Time

     0     0 41107.3487    0    3 39273.7025 41107.3487  4.67%     -    0s
     0     0 40058.2879    0    9 39273.7025 40058.2879  2.00%     -    0s
     0     0 39289.6520    0    8 39273.7025 39289.6520  0.04%     -    0s
     0     0 39289.4155    0    6 39273.7025 39289.4155  0.04%     -    0s
     0     0 39289.4155    0    6 39273.7025 39289.4155  0.04%     -    0s
     0     0 39289.4154    0    6 39273.7025 39289.4154  0.04%     -    0s
     0     2 39289.4154    0    6 39273.7025 39289.4154  0.04%     -    0s
H   29    34                    39278.007715 39289.4152  0.03%  29.5    0s
H  101    67                    39282.121321 39289.1572  0.02%  17.5    0s
H 6622   451                    39282.405828 39288.7389  0.02%   3.5    1s
H 6623   428                    39282.429926 39288.7389  0.02%   3.5    2s
H 6663   436                    39282.782627 39288.7389  0.02%   3.7    2s
H 6700   446                    39284.153275 39288.7389  0.01%   4.0    2s
H 8380   583                    39284.873633 39288.7389  0.01%   6.9    3s

Cutting planes:
  Inf proof: 2

Explored 8447 nodes (61017 simplex iterations) in 3.45 seconds (5.91 work units)
Thread count was 8 (of 8 available processors)

Solution count 10: 39284.9 39284.9 39284.2 ... 38085.5

Optimal solution found (tolerance 1.00e-04)
Best objective 3.928487363293e+04, best bound 3.928873888981e+04, gap 0.0098%
